NAME          
ROWS
 N  OBJ
 L  c1
 L  c2
COLUMNS
    MARKER    'MARKER'                 'INTORG'
    x[1]      c1        359
    x[1]      c2        277
    x[1]      OBJ       -397
    x[2]      c1        42
    x[2]      c2        742
    x[2]      OBJ       -554
    x[3]      c1        474
    x[3]      c2        250
    x[3]      OBJ       -14
    x[4]      c1        106
    x[4]      c2        49
    x[4]      OBJ       -638
    x[5]      c1        315
    x[5]      c2        413
    x[5]      OBJ       -380
    x[6]      c1        605
    x[6]      c2        804
    x[6]      OBJ       -550
    x[7]      c1        528
    x[7]      c2        149
    x[7]      OBJ       -152
    x[8]      c1        328
    x[8]      c2        468
    x[8]      OBJ       -459
    x[9]      c1        431
    x[9]      c2        615
    x[9]      OBJ       -309
    x[10]     c1        799
    x[10]     c2        914
    x[10]     OBJ       -818
RHS
    rhs       c1        1994
    rhs       c2        2340
RANGES
BOUNDS
 LO bounds    x[1]      0
 PL bounds    x[1]
 LO bounds    x[2]      0
 PL bounds    x[2]
 LO bounds    x[3]      0
 PL bounds    x[3]
 LO bounds    x[4]      0
 PL bounds    x[4]
 LO bounds    x[5]      0
 PL bounds    x[5]
 LO bounds    x[6]      0
 PL bounds    x[6]
 LO bounds    x[7]      0
 PL bounds    x[7]
 LO bounds    x[8]      0
 PL bounds    x[8]
 LO bounds    x[9]      0
 PL bounds    x[9]
 LO bounds    x[10]     0
 PL bounds    x[10]
ENDATA
